15 10 2.95 3 1 2 8 8195 4099
1 0 1 3 2 0 2 0 3 2
1 100
2 90
3 100
1 39
1 260
2 780
1 1 0 520
2 1 0 520
3 2 0 510
4 2 0 570
5 2 0 550
6 2 0 500
7 2 0 570
8 2 0 560
0 2 1 120 2 100 11 1 3 1 15 1 1 2 4 3 2 2 15 1 3 2 2 3 2 4 9 1 3 2 2 3 5 1 2 3 9 1 4 2 5 3 2 2 16 1 3 2 2 3 4 1 2 1 5 1 1 2 4 3 3 2 8 1 4 2 1 3 2 1 4 2 14 1 1 2 1 3 2 5 6 1 2 2 5 3 2 4 15 1 4 2 4 3 1 3 5 1 4 2 1 3 4 1 2 3 7 1 1 2 3 3 1 1 19 1 1 2 2 3 1 1 3 1 11 1 1 2 5 3 1 2 14 1 1 2 3 3 4 3 14 1 4 2 4 3 4 1 4 2 9 1 3 2 3 3 5 1 16 1 2 2 2 3 1 3 18 1 3 2 5 3 1 4 20 1 4 2 5 3 1 1 4 2 17 1 4 2 1 3 4 1 13 1 4 2 5 3 2 3 17 1 2 2 4 3 2 4 14 1 1 2 1 3 3 1 4 2 12 1 5 2 5 3 3 1 14 1 1 2 5 3 1 3 15 1 3 2 4 3 3 4 14 1 2 2 1 3 4 1 3 1 7 1 5 2 2 3 1 2 15 1 3 2 3 3 2 3 17 1 2 2 4 3 3 1 3 1 10 1 1 2 2 3 4 2 15 1 4 2 3 3 2 4 17 1 2 2 1 3 4 
0 2 1 120 2 80 10 1 2 4 12 1 4 2 2 3 3 3 19 1 5 2 4 3 5 1 2 2 8 1 4 2 2 3 3 1 6 1 5 2 5 3 4 1 2 6 5 1 3 2 1 3 2 2 19 1 1 2 1 3 1 1 4 2 16 1 5 2 5 3 2 1 10 1 3 2 4 3 5 3 18 1 3 2 1 3 4 4 14 1 3 2 1 3 3 1 4 2 19 1 5 2 2 3 1 4 19 1 4 2 5 3 1 1 9 1 4 2 3 3 2 3 18 1 4 2 1 3 5 1 4 1 12 1 5 2 3 3 4 2 10 1 4 2 5 3 2 3 10 1 5 2 2 3 1 4 8 1 2 2 2 3 2 1 4 1 13 1 2 2 1 3 2 2 8 1 5 2 3 3 5 3 6 1 3 2 3 3 3 4 19 1 1 2 5 3 4 1 4 1 12 1 3 2 5 3 2 2 13 1 3 2 3 3 2 3 11 1 3 2 3 3 5 4 8 1 2 2 4 3 4 1 2 1 10 1 3 2 2 3 3 2 8 1 5 2 2 3 4 1 4 3 13 1 5 2 1 3 2 1 17 1 5 2 3 3 1 4 14 1 1 2 5 3 4 2 8 1 5 2 3 3 5 
0 2 1 90 2 130 11 1 2 1 14 1 4 2 5 3 5 2 13 1 1 2 5 3 2 1 3 3 12 1 1 2 1 3 4 2 11 1 4 2 3 3 4 4 12 1 2 2 2 3 4 1 3 2 16 1 4 2 4 3 2 1 12 1 3 2 3 3 2 3 13 1 1 2 4 3 1 1 4 1 19 1 4 2 1 3 3 2 20 1 1 2 3 3 2 3 20 1 5 2 2 3 2 4 8 1 1 2 4 3 4 1 2 2 20 1 1 2 4 3 1 1 6 1 1 2 4 3 4 1 4 1 11 1 3 2 1 3 2 2 20 1 1 2 3 3 3 3 7 1 5 2 2 3 2 4 20 1 2 2 5 3 5 1 4 2 6 1 5 2 2 3 1 3 7 1 5 2 1 3 3 4 18 1 4 2 5 3 1 5 12 1 2 2 2 3 5 1 4 4 20 1 2 2 2 3 2 3 19 1 1 2 1 3 4 1 16 1 3 2 4 3 2 2 10 1 5 2 4 3 4 1 3 4 13 1 3 2 4 3 2 3 11 1 1 2 1 3 1 5 16 1 2 2 1 3 1 1 3 1 14 1 5 2 3 3 2 3 10 1 1 2 3 3 5 2 6 1 1 2 4 3 1 1 3 1 9 1 4 2 5 3 1 3 16 1 3 2 1 3 5 2 5 1 5 2 4 3 3 
0 2 1 120 2 110 8 1 4 2 7 1 1 2 1 3 3 3 19 1 3 2 5 3 5 1 15 1 4 2 5 3 3 4 9 1 4 2 5 3 2 1 3 3 11 1 1 2 2 3 3 1 17 1 2 2 3 3 3 2 6 1 5 2 2 3 4 1 2 2 14 1 4 2 5 3 4 1 18 1 3 2 5 3 1 1 4 2 15 1 4 2 5 3 1 1 13 1 3 2 1 3 1 3 18 1 4 2 5 3 3 4 5 1 3 2 4 3 3 1 4 2 6 1 4 2 2 3 4 1 19 1 5 2 2 3 1 3 12 1 5 2 2 3 2 4 18 1 3 2 3 3 3 1 3 2 5 1 1 2 5 3 2 1 20 1 4 2 3 3 2 3 15 1 4 2 3 3 1 1 4 1 11 1 2 2 5 3 5 2 7 1 2 2 1 3 2 3 16 1 3 2 1 3 3 4 16 1 5 2 1 3 2 1 3 2 7 1 2 2 2 3 2 1 18 1 4 2 2 3 2 4 17 1 4 2 1 3 5 
0 2 1 70 2 100 12 1 3 4 6 1 3 2 2 3 3 2 15 1 1 2 2 3 3 1 7 1 4 2 3 3 3 1 2 1 9 1 3 2 4 3 2 2 6 1 2 2 4 3 2 1 4 2 8 1 2 2 3 3 5 3 20 1 4 2 1 3 3 4 16 1 2 2 2 3 1 1 8 1 4 2 5 3 2 1 2 3 9 1 1 2 3 3 1 2 17 1 2 2 5 3 3 1 3 1 11 1 5 2 5 3 2 2 11 1 4 2 2 3 4 3 6 1 2 2 1 3 3 1 3 2 5 1 5 2 3 3 3 1 10 1 1 2 5 3 1 3 12 1 2 2 5 3 3 1 2 2 11 1 3 2 1 3 5 1 10 1 1 2 4 3 4 1 3 2 16 1 1 2 2 3 1 1 16 1 2 2 5 3 2 3 14 1 1 2 2 3 1 1 3 4 17 1 4 2 5 3 1 2 10 1 5 2 3 3 3 5 18 1 3 2 1 3 4 1 3 1 15 1 4 2 5 3 5 5 19 1 3 2 5 3 5 2 9 1 5 2 1 3 5 1 3 2 6 1 3 2 1 3 4 1 10 1 2 2 3 3 3 3 11 1 2 2 3 3 5 1 4 2 10 1 2 2 3 3 2 1 14 1 1 2 5 3 1 3 8 1 1 2 1 3 2 4 6 1 3 2 2 3 1 
2 1 130 2 110 6 3 70 4 90 5 100 6 100 7 100 8 130 11 1 4 2 19 1 2 2 4 3 3 1 17 1 4 2 3 3 1 3 15 1 1 2 4 3 4 4 16 1 2 2 1 3 2 1 3 1 17 1 3 2 3 3 1 3 12 1 1 2 2 3 2 4 13 1 1 2 2 3 2 1 3 5 10 1 4 2 3 3 4 1 18 1 3 2 1 3 2 2 13 1 2 2 5 3 2 1 2 1 14 1 1 2 5 3 1 2 14 1 4 2 4 3 3 1 2 4 9 1 1 2 1 3 3 3 12 1 4 2 4 3 4 1 2 3 18 1 3 2 4 3 5 1 10 1 1 2 1 3 5 1 3 2 16 1 3 2 3 3 4 3 10 1 3 2 1 3 2 4 7 1 5 2 3 3 1 1 2 1 10 1 2 2 3 3 3 2 16 1 5 2 2 3 1 1 3 1 11 1 2 2 4 3 3 2 20 1 2 2 5 3 4 3 17 1 5 2 1 3 3 1 2 1 19 1 4 2 5 3 2 2 8 1 2 2 4 3 3 1 3 3 18 1 5 2 3 3 3 4 17 1 3 2 1 3 3 5 13 1 1 2 1 3 4 
2 1 50 2 90 6 3 80 4 130 5 80 6 90 7 150 8 90 10 1 3 2 6 1 5 2 2 3 4 3 13 1 3 2 2 3 2 4 20 1 5 2 3 3 1 1 2 1 11 1 2 2 3 3 5 2 14 1 2 2 1 3 4 1 4 2 7 1 2 2 3 3 2 1 16 1 5 2 5 3 5 3 6 1 3 2 4 3 5 4 19 1 5 2 4 3 1 1 2 1 17 1 2 2 3 3 1 4 12 1 3 2 2 3 5 1 3 1 5 1 4 2 1 3 4 2 14 1 5 2 1 3 1 3 18 1 4 2 2 3 1 1 3 1 15 1 3 2 5 3 3 2 16 1 4 2 2 3 4 3 13 1 1 2 2 3 1 1 2 1 18 1 2 2 1 3 4 3 16 1 5 2 4 3 2 1 3 2 17 1 5 2 4 3 2 1 15 1 3 2 3 3 2 3 19 1 4 2 1 3 1 1 2 2 14 1 3 2 3 3 3 1 14 1 5 2 4 3 2 1 2 3 11 1 4 2 3 3 1 1 9 1 2 2 4 3 2 
2 1 130 2 90 6 3 100 4 110 5 90 6 160 7 110 8 120 12 1 3 2 14 1 2 2 2 3 1 1 20 1 5 2 2 3 4 4 8 1 4 2 5 3 1 1 2 3 9 1 5 2 3 3 1 1 18 1 5 2 5 3 4 1 2 1 7 1 4 2 4 3 5 2 5 1 4 2 2 3 3 1 2 2 18 1 2 2 2 3 5 1 11 1 4 2 5 3 4 1 3 2 9 1 5 2 3 3 3 3 17 1 1 2 5 3 5 4 20 1 3 2 3 3 1 1 2 2 9 1 5 2 5 3 5 1 19 1 3 2 5 3 1 1 4 1 13 1 2 2 5 3 1 4 13 1 3 2 3 3 2 5 16 1 1 2 5 3 5 3 19 1 5 2 3 3 5 1 4 2 19 1 2 2 2 3 5 3 12 1 1 2 1 3 2 4 11 1 1 2 3 3 1 1 8 1 3 2 3 3 2 1 3 1 7 1 4 2 3 3 3 2 14 1 4 2 1 3 2 3 9 1 1 2 5 3 4 1 4 2 12 1 5 2 1 3 3 3 16 1 2 2 1 3 1 4 16 1 3 2 5 3 1 5 14 1 5 2 1 3 3 1 2 2 6 1 3 2 2 3 2 3 19 1 2 2 1 3 3 1 3 1 20 1 2 2 3 3 1 2 12 1 4 2 3 3 1 3 18 1 5 2 3 3 3 
2 1 130 2 130 6 3 160 4 150 5 150 6 50 7 80 8 130 9 1 4 1 16 1 3 2 1 3 5 4 19 1 3 2 4 3 4 2 19 1 1 2 3 3 2 3 8 1 4 2 1 3 3 1 2 2 11 1 5 2 3 3 5 5 19 1 3 2 3 3 4 1 2 1 11 1 4 2 1 3 4 2 5 1 5 2 3 3 4 1 2 2 17 1 4 2 3 3 5 3 9 1 3 2 5 3 3 1 3 2 15 1 1 2 5 3 5 1 6 1 4 2 1 3 5 3 5 1 3 2 2 3 2 1 3 2 6 1 5 2 1 3 4 5 12 1 4 2 4 3 1 3 17 1 5 2 5 3 4 1 2 1 19 1 5 2 2 3 5 2 15 1 2 2 2 3 5 1 4 3 7 1 1 2 5 3 2 2 9 1 3 2 5 3 4 1 9 1 4 2 3 3 1 4 20 1 2 2 3 3 2 1 3 2 14 1 3 2 4 3 3 1 5 1 4 2 3 3 2 3 11 1 5 2 3 3 4 
2 1 80 2 100 6 3 100 4 90 5 130 6 100 7 130 8 90 12 1 2 2 15 1 1 2 1 3 2 1 19 1 3 2 2 3 1 1 4 2 18 1 3 2 3 3 5 3 14 1 5 2 5 3 2 4 8 1 1 2 4 3 3 5 16 1 3 2 1 3 5 1 2 2 15 1 1 2 2 3 3 1 8 1 5 2 4 3 4 1 4 1 6 1 5 2 1 3 1 3 15 1 1 2 5 3 2 2 14 1 4 2 2 3 4 4 10 1 5 2 1 3 1 1 3 2 20 1 5 2 1 3 4 3 13 1 3 2 3 3 3 1 14 1 2 2 2 3 4 1 3 5 20 1 3 2 4 3 2 1 9 1 2 2 1 3 3 2 12 1 2 2 2 3 1 1 4 1 7 1 2 2 4 3 1 2 9 1 1 2 1 3 2 3 10 1 1 2 4 3 5 4 5 1 2 2 2 3 3 1 4 4 9 1 4 2 5 3 1 3 19 1 1 2 1 3 2 5 18 1 3 2 1 3 1 1 19 1 3 2 3 3 4 1 3 1 8 1 5 2 1 3 3 3 16 1 2 2 4 3 3 2 8 1 1 2 3 3 4 1 2 2 20 1 4 2 1 3 2 1 17 1 5 2 1 3 1 1 2 5 14 1 3 2 1 3 4 3 8 1 5 2 3 3 5 1 2 3 20 1 3 2 2 3 5 2 12 1 5 2 4 3 2 
6 3 150 4 140 5 130 6 130 7 90 8 140 0 9 1 4 1 19 1 4 2 2 3 5 3 14 1 1 2 3 3 5 2 14 1 1 2 5 3 3 4 6 1 1 2 2 3 4 1 4 5 13 1 1 2 1 3 3 3 7 1 3 2 3 3 3 1 8 1 2 2 3 3 2 4 14 1 1 2 2 3 3 1 2 2 19 1 1 2 3 3 4 1 20 1 5 2 1 3 4 1 3 1 5 1 5 2 5 3 3 3 6 1 3 2 3 3 4 2 13 1 2 2 2 3 3 1 2 1 11 1 3 2 5 3 4 2 6 1 3 2 1 3 5 1 4 2 15 1 4 2 5 3 3 1 8 1 2 2 4 3 2 3 6 1 2 2 3 3 4 4 13 1 1 2 4 3 1 1 3 3 19 1 2 2 1 3 2 2 15 1 5 2 2 3 1 1 14 1 4 2 4 3 2 1 3 5 6 1 4 2 3 3 5 2 15 1 1 2 5 3 1 1 20 1 3 2 2 3 2 1 2 1 14 1 4 2 1 3 1 2 19 1 5 2 4 3 1 
6 3 70 4 40 5 110 6 100 7 130 8 90 0 10 1 2 2 5 1 2 2 1 3 5 1 19 1 1 2 3 3 3 1 4 3 14 1 4 2 4 3 1 4 14 1 4 2 4 3 1 2 17 1 3 2 2 3 4 5 20 1 4 2 4 3 1 1 3 1 16 1 5 2 4 3 5 2 17 1 2 2 4 3 2 3 6 1 5 2 4 3 5 1 2 2 20 1 4 2 4 3 3 3 16 1 2 2 2 3 5 1 2 2 14 1 5 2 3 3 5 4 11 1 3 2 2 3 3 1 2 2 5 1 3 2 2 3 4 1 14 1 4 2 5 3 2 1 2 1 9 1 1 2 1 3 3 3 17 1 4 2 5 3 4 1 2 5 9 1 2 2 3 3 3 1 6 1 5 2 3 3 5 1 3 1 5 1 1 2 5 3 5 2 10 1 3 2 2 3 5 3 7 1 1 2 2 3 3 1 4 1 16 1 3 2 4 3 2 4 8 1 2 2 5 3 1 2 17 1 3 2 1 3 2 3 5 1 1 2 1 3 4 
6 3 110 4 120 5 120 6 90 7 160 8 100 0 11 1 4 5 13 1 4 2 2 3 1 2 10 1 1 2 2 3 5 1 14 1 1 2 5 3 3 3 12 1 2 2 4 3 4 1 2 5 6 1 2 2 1 3 5 1 12 1 2 2 3 3 2 1 3 2 17 1 2 2 2 3 3 3 17 1 2 2 2 3 1 4 11 1 3 2 3 3 1 1 4 1 13 1 2 2 5 3 3 2 8 1 3 2 4 3 2 3 9 1 2 2 2 3 3 4 11 1 3 2 3 3 3 1 3 2 10 1 4 2 2 3 4 1 5 1 4 2 1 3 3 3 16 1 3 2 4 3 4 1 4 3 8 1 2 2 3 3 5 4 20 1 5 2 4 3 1 1 20 1 3 2 5 3 2 5 6 1 2 2 2 3 2 1 2 1 16 1 2 2 5 3 1 2 18 1 4 2 4 3 4 1 2 1 8 1 1 2 1 3 4 2 6 1 3 2 5 3 1 1 4 2 11 1 2 2 5 3 2 1 20 1 4 2 4 3 4 3 14 1 2 2 1 3 4 4 9 1 5 2 3 3 2 1 2 1 20 1 4 2 3 3 2 2 15 1 2 2 3 3 2 1 2 1 9 1 5 2 2 3 2 5 6 1 5 2 3 3 1 
6 3 90 4 130 5 90 6 90 7 90 8 110 0 9 1 3 1 16 1 4 2 1 3 3 4 7 1 4 2 5 3 4 3 12 1 1 2 5 3 1 1 3 1 19 1 1 2 1 3 1 2 12 1 3 2 5 3 3 4 15 1 2 2 2 3 1 1 2 3 9 1 4 2 4 3 5 4 16 1 5 2 5 3 1 1 3 3 17 1 2 2 1 3 3 2 11 1 2 2 3 3 5 1 13 1 1 2 5 3 4 1 3 2 15 1 1 2 3 3 1 3 7 1 3 2 5 3 2 4 18 1 5 2 3 3 2 1 4 3 17 1 4 2 2 3 3 1 7 1 5 2 2 3 1 5 17 1 3 2 5 3 5 2 15 1 4 2 2 3 2 1 4 2 14 1 2 2 3 3 5 3 20 1 5 2 2 3 2 4 9 1 5 2 1 3 2 5 17 1 1 2 2 3 5 1 4 3 17 1 5 2 3 3 1 2 13 1 1 2 5 3 4 4 13 1 5 2 2 3 4 5 13 1 3 2 2 3 3 1 2 1 8 1 4 2 4 3 1 2 17 1 1 2 4 3 2 
6 3 90 4 140 5 100 6 90 7 100 8 120 0 11 1 4 2 11 1 5 2 4 3 3 3 7 1 5 2 3 3 5 1 10 1 1 2 1 3 4 4 13 1 5 2 4 3 5 1 4 3 10 1 2 2 3 3 4 1 13 1 2 2 2 3 4 2 20 1 1 2 5 3 2 4 17 1 5 2 3 3 3 1 2 4 11 1 3 2 2 3 3 5 6 1 4 2 4 3 1 1 3 1 10 1 2 2 3 3 5 3 12 1 2 2 4 3 3 2 7 1 3 2 4 3 5 1 4 2 15 1 5 2 5 3 5 3 17 1 2 2 5 3 5 1 18 1 3 2 4 3 5 4 13 1 3 2 3 3 1 1 3 2 8 1 4 2 4 3 4 1 17 1 5 2 3 3 1 5 16 1 1 2 5 3 1 1 3 2 5 1 3 2 1 3 3 3 19 1 4 2 2 3 3 1 19 1 5 2 4 3 1 1 3 2 6 1 4 2 4 3 5 1 10 1 3 2 1 3 4 3 5 1 2 2 5 3 3 1 3 2 14 1 5 2 1 3 1 3 9 1 2 2 1 3 2 1 20 1 5 2 5 3 5 1 2 1 20 1 2 2 1 3 2 3 11 1 1 2 4 3 3 1 4 1 20 1 1 2 5 3 5 2 8 1 2 2 1 3 4 3 16 1 4 2 3 3 4 4 12 1 3 2 3 3 1 
